
Gurobi 8.1.1 (mac64, Python) logging started Sat Sep  7 21:15:40 2019

Academic license - for non-commercial use only

Gurobi 8.1.1 (mac64, Python) logging started Sat Sep  7 21:16:52 2019

Academic license - for non-commercial use only

Gurobi 8.1.1 (mac64, Python) logging started Sat Sep  7 21:20:42 2019

Academic license - for non-commercial use only

Gurobi 8.1.1 (mac64, Python) logging started Sat Sep  7 21:27:52 2019

Academic license - for non-commercial use only

Gurobi 8.1.1 (mac64, Python) logging started Sat Sep  7 21:29:09 2019

Academic license - for non-commercial use only

Gurobi 8.1.1 (mac64, Python) logging started Sat Sep  7 21:29:29 2019

Academic license - for non-commercial use only

Gurobi 8.1.1 (mac64, Python) logging started Sat Sep  7 21:30:10 2019

Academic license - for non-commercial use only

Gurobi 8.1.1 (mac64, Python) logging started Sat Sep  7 21:31:21 2019

Academic license - for non-commercial use only

Gurobi 8.1.1 (mac64, Python) logging started Sat Sep  7 21:31:45 2019

Academic license - for non-commercial use only

Gurobi 8.1.1 (mac64, Python) logging started Sat Sep  7 21:32:44 2019

Academic license - for non-commercial use only

Gurobi 8.1.1 (mac64, Python) logging started Sat Sep  7 21:33:25 2019

Academic license - for non-commercial use only

Gurobi 8.1.1 (mac64, Python) logging started Sat Sep  7 21:33:47 2019

Academic license - for non-commercial use only

Gurobi 8.1.1 (mac64, Python) logging started Sat Sep  7 21:36:31 2019

Academic license - for non-commercial use only

Gurobi 8.1.1 (mac64, Python) logging started Sat Sep  7 21:46:48 2019

Academic license - for non-commercial use only

Gurobi 8.1.1 (mac64, Python) logging started Sat Sep  7 21:50:44 2019

Academic license - for non-commercial use only

Gurobi 8.1.1 (mac64, Python) logging started Sat Sep  7 21:51:05 2019

Academic license - for non-commercial use only

Gurobi 8.1.1 (mac64, Python) logging started Sat Sep  7 21:51:21 2019

Academic license - for non-commercial use only

Gurobi 8.1.1 (mac64, Python) logging started Sat Sep  7 21:52:07 2019

Academic license - for non-commercial use only

Gurobi 8.1.1 (mac64, Python) logging started Sat Sep  7 21:55:06 2019

Academic license - for non-commercial use only

Gurobi 8.1.1 (mac64, Python) logging started Sat Sep  7 21:56:10 2019

Academic license - for non-commercial use only

Gurobi 8.1.1 (mac64, Python) logging started Sat Sep  7 21:56:26 2019

Academic license - for non-commercial use only

Gurobi 8.1.1 (mac64, Python) logging started Sat Sep  7 21:59:32 2019

Academic license - for non-commercial use only

Gurobi 8.1.1 (mac64, Python) logging started Sat Sep  7 22:00:43 2019

Academic license - for non-commercial use only

Gurobi 8.1.1 (mac64, Python) logging started Sat Sep  7 22:08:16 2019

Academic license - for non-commercial use only

Gurobi 8.1.1 (mac64, Python) logging started Sat Sep  7 22:09:13 2019

Academic license - for non-commercial use only

Gurobi 8.1.1 (mac64, Python) logging started Sat Sep  7 22:09:59 2019

Academic license - for non-commercial use only

Gurobi 8.1.1 (mac64, Python) logging started Sat Sep  7 22:10:58 2019

Academic license - for non-commercial use only

Gurobi 8.1.1 (mac64, Python) logging started Sat Sep  7 22:13:25 2019

Academic license - for non-commercial use only

Gurobi 8.1.1 (mac64, Python) logging started Sat Sep  7 22:15:04 2019

Academic license - for non-commercial use only

Gurobi 8.1.1 (mac64, Python) logging started Sat Sep  7 22:17:33 2019

Academic license - for non-commercial use only

Gurobi 8.1.1 (mac64, Python) logging started Sat Sep  7 22:18:40 2019

Academic license - for non-commercial use only

Gurobi 8.1.1 (mac64, Python) logging started Sat Sep  7 22:19:05 2019

Academic license - for non-commercial use only

Gurobi 8.1.1 (mac64, Python) logging started Sat Sep  7 22:19:20 2019

Academic license - for non-commercial use only

Gurobi 8.1.1 (mac64, Python) logging started Sat Sep  7 22:19:44 2019

Academic license - for non-commercial use only

Gurobi 8.1.1 (mac64, Python) logging started Sat Sep  7 22:19:56 2019

Academic license - for non-commercial use only

Gurobi 8.1.1 (mac64, Python) logging started Sat Sep  7 22:20:10 2019

Academic license - for non-commercial use only

Gurobi 8.1.1 (mac64, Python) logging started Sat Sep  7 22:21:53 2019

Academic license - for non-commercial use only

Gurobi 8.1.1 (mac64, Python) logging started Sat Sep  7 22:22:14 2019

Academic license - for non-commercial use only

Gurobi 8.1.1 (mac64, Python) logging started Sat Sep  7 22:23:58 2019

Academic license - for non-commercial use only

Gurobi 8.1.1 (mac64, Python) logging started Sat Sep  7 22:24:13 2019

Academic license - for non-commercial use only

Gurobi 8.1.1 (mac64, Python) logging started Sat Sep  7 22:39:34 2019

Academic license - for non-commercial use only

Gurobi 8.1.1 (mac64, Python) logging started Sat Sep  7 22:40:00 2019

Academic license - for non-commercial use only

Gurobi 8.1.1 (mac64, Python) logging started Sat Sep  7 22:41:02 2019

Academic license - for non-commercial use only

Gurobi 8.1.1 (mac64, Python) logging started Sat Sep  7 22:41:12 2019

Academic license - for non-commercial use only

Gurobi 8.1.1 (mac64, Python) logging started Sat Sep  7 22:42:20 2019

Academic license - for non-commercial use only

Gurobi 8.1.1 (mac64, Python) logging started Sat Sep  7 22:43:48 2019

Academic license - for non-commercial use only

Gurobi 8.1.1 (mac64, Python) logging started Sat Sep  7 22:44:27 2019

Academic license - for non-commercial use only

Gurobi 8.1.1 (mac64, Python) logging started Sat Sep  7 22:44:53 2019

Academic license - for non-commercial use only

Gurobi 8.1.1 (mac64, Python) logging started Sat Sep  7 22:47:22 2019

Academic license - for non-commercial use only

Gurobi 8.1.1 (mac64, Python) logging started Sat Sep  7 22:47:52 2019

Academic license - for non-commercial use only

Gurobi 8.1.1 (mac64, Python) logging started Sat Sep  7 22:48:07 2019

Academic license - for non-commercial use only

Gurobi 8.1.1 (mac64, Python) logging started Sat Sep  7 22:48:54 2019

Academic license - for non-commercial use only

Gurobi 8.1.1 (mac64, Python) logging started Sat Sep  7 22:49:23 2019

Academic license - for non-commercial use only

Gurobi 8.1.1 (mac64, Python) logging started Sat Sep  7 22:49:59 2019

Academic license - for non-commercial use only

Gurobi 8.1.1 (mac64, Python) logging started Sat Sep  7 22:52:12 2019

Academic license - for non-commercial use only

Gurobi 8.1.1 (mac64, Python) logging started Sat Sep  7 22:54:23 2019

Academic license - for non-commercial use only

Gurobi 8.1.1 (mac64, Python) logging started Sat Sep  7 22:57:54 2019

Academic license - for non-commercial use only

Gurobi 8.1.1 (mac64, Python) logging started Sat Sep  7 23:25:52 2019

Academic license - for non-commercial use only

Gurobi 8.1.1 (mac64, Python) logging started Sat Sep  7 23:26:38 2019

Academic license - for non-commercial use only

Gurobi 8.1.1 (mac64, Python) logging started Sat Sep  7 23:27:08 2019

Academic license - for non-commercial use only

Gurobi 8.1.1 (mac64, Python) logging started Sat Sep  7 23:29:11 2019

Academic license - for non-commercial use only

Gurobi 8.1.1 (mac64, Python) logging started Sat Sep  7 23:29:31 2019

Academic license - for non-commercial use only

Gurobi 8.1.1 (mac64, Python) logging started Sat Sep  7 23:30:47 2019

Academic license - for non-commercial use only

Gurobi 8.1.1 (mac64, Python) logging started Sat Sep  7 23:43:01 2019

Academic license - for non-commercial use only

Gurobi 8.1.1 (mac64, Python) logging started Sat Sep  7 23:43:45 2019

Academic license - for non-commercial use only

Gurobi 8.1.1 (mac64, Python) logging started Sun Sep  8 00:02:42 2019

Academic license - for non-commercial use only

Gurobi 8.1.1 (mac64, Python) logging started Sun Sep  8 00:03:51 2019

Academic license - for non-commercial use only

Gurobi 8.1.1 (mac64, Python) logging started Sun Sep  8 00:04:19 2019

Academic license - for non-commercial use only

Gurobi 8.1.1 (mac64, Python) logging started Sun Sep  8 00:04:38 2019

Academic license - for non-commercial use only

Gurobi 8.1.1 (mac64, Python) logging started Sun Sep  8 00:05:32 2019

Academic license - for non-commercial use only

Gurobi 8.1.1 (mac64, Python) logging started Sun Sep  8 00:06:00 2019

Academic license - for non-commercial use only

Gurobi 8.1.1 (mac64, Python) logging started Sun Sep  8 00:07:48 2019

Academic license - for non-commercial use only

Gurobi 8.1.1 (mac64, Python) logging started Sun Sep  8 00:10:34 2019

Academic license - for non-commercial use only

Gurobi 8.1.1 (mac64, Python) logging started Sun Sep  8 09:44:44 2019

Academic license - for non-commercial use only
Optimize a model with 2 rows, 3 columns and 5 nonzeros
Model has 5 quadratic objective terms
Coefficient statistics:
  Matrix range     [1e+00, 3e+00]
  Objective range  [2e+00, 2e+00]
  QObjective range [2e+00, 2e+00]
  Bounds range     [1e+00, 1e+00]
  RHS range        [1e+00, 4e+00]
Presolve time: 0.02s
Presolved: 2 rows, 3 columns, 5 nonzeros
Presolved model has 5 quadratic objective terms
Ordering time: 0.00s

Barrier statistics:
 Free vars  : 2
 AA' NZ     : 6.000e+00
 Factor NZ  : 1.000e+01
 Factor Ops : 3.000e+01 (less than 1 second per iteration)
 Threads    : 1

                  Objective                Residual
Iter       Primal          Dual         Primal    Dual     Compl     Time
   0   1.69015022e+05 -1.71012100e+05  1.50e+03 3.33e+02  1.00e+06     0s
   1   3.60255402e+04 -3.91306233e+04  2.28e+02 3.82e+01  1.20e+05     0s
   2   4.14685168e+00 -4.40925173e+03  1.80e+00 4.00e-01  1.83e+03     0s
   3   2.81937163e+00 -1.92736174e+03  1.80e-06 4.00e-07  2.41e+02     0s
   4   2.81628339e+00 -1.81287557e-01  8.60e-10 1.90e-10  3.75e-01     0s
   5   2.26977145e+00  2.06670895e+00  6.89e-12 1.53e-12  2.54e-02     0s
   6   2.11498124e+00  2.11029644e+00  2.22e-16 5.55e-16  5.86e-04     0s
   7   2.11111498e+00  2.11111030e+00  2.22e-16 2.22e-16  5.85e-07     0s
   8   2.11111111e+00  2.11111111e+00  2.22e-16 0.00e+00  5.86e-10     0s

Barrier solved model in 8 iterations and 0.02 seconds
Optimal objective 2.11111111e+00


Gurobi 8.1.1 (mac64, Python) logging started Sun Sep  8 09:46:19 2019

Academic license - for non-commercial use only

Gurobi 8.1.1 (mac64, Python) logging started Sun Sep  8 09:46:43 2019

Academic license - for non-commercial use only

Gurobi 8.1.1 (mac64, Python) logging started Sun Sep  8 09:47:19 2019

Academic license - for non-commercial use only

Gurobi 8.1.1 (mac64, Python) logging started Sun Sep  8 09:47:38 2019

Academic license - for non-commercial use only

Gurobi 8.1.1 (mac64, Python) logging started Sun Sep  8 09:54:02 2019

Academic license - for non-commercial use only

Gurobi 8.1.1 (mac64, Python) logging started Sun Sep  8 09:54:50 2019

Academic license - for non-commercial use only

Gurobi 8.1.1 (mac64, Python) logging started Sun Sep  8 10:08:59 2019

Academic license - for non-commercial use only

Gurobi 8.1.1 (mac64, Python) logging started Sun Sep  8 10:09:31 2019

Academic license - for non-commercial use only

Gurobi 8.1.1 (mac64, Python) logging started Sun Sep  8 10:10:36 2019

Academic license - for non-commercial use only

Gurobi 8.1.1 (mac64, Python) logging started Sun Sep  8 10:11:45 2019

Academic license - for non-commercial use only

Gurobi 8.1.1 (mac64, Python) logging started Sun Sep  8 10:12:07 2019

Academic license - for non-commercial use only
Optimize a model with 2 rows, 3 columns and 5 nonzeros
Model has 6 quadratic objective terms
Coefficient statistics:
  Matrix range     [1e+00, 3e+00]
  Objective range  [2e+02, 2e+02]
  QObjective range [2e+00, 4e+00]
  Bounds range     [1e+00, 1e+00]
  RHS range        [1e+00, 4e+00]
Presolve time: 0.02s
Presolved: 2 rows, 3 columns, 5 nonzeros
Presolved model has 6 quadratic objective terms
Ordering time: 0.00s

Barrier statistics:
 Free vars  : 1
 AA' NZ     : 3.000e+00
 Factor NZ  : 6.000e+00
 Factor Ops : 1.400e+01 (less than 1 second per iteration)
 Threads    : 1

                  Objective                Residual
Iter       Primal          Dual         Primal    Dual     Compl     Time
   0  -5.90000000e+05  7.80000000e+03  3.00e+03 2.00e+02  9.64e+05     0s
   1   1.12206212e+05 -2.00691964e+05  8.01e+01 1.10e-08  7.17e+04     0s
   2   1.53101812e+04 -4.16199319e+04  8.01e-05 1.14e-13  8.13e+03     0s
   3   6.98322801e+02 -6.28109684e+03  8.01e-11 2.84e-14  9.97e+02     0s
   4   2.25004034e+00 -3.08253042e+02  5.68e-14 2.84e-14  4.44e+01     0s
   5   2.25016811e-06 -3.06256913e-01  0.00e+00 2.84e-14  4.38e-02     0s
   6   5.45696821e-12 -3.06551608e-04  1.42e-14 0.00e+00  4.38e-05     0s
   7   1.81898940e-12 -3.06859874e-07  0.00e+00 5.68e-14  4.38e-08     0s
   8  -5.45696821e-12 -3.12866177e-10  1.42e-14 5.68e-14  4.41e-11     0s

Barrier solved model in 8 iterations and 0.03 seconds
Optimal objective -5.45696821e-12


Gurobi 8.1.1 (mac64, Python) logging started Sun Sep  8 10:12:30 2019

Academic license - for non-commercial use only

Gurobi 8.1.1 (mac64, Python) logging started Sun Sep  8 10:13:35 2019

Academic license - for non-commercial use only

Gurobi 8.1.1 (mac64, Python) logging started Sun Sep  8 10:14:45 2019

Academic license - for non-commercial use only
Optimize a model with 2 rows, 3 columns and 5 nonzeros
Model has 6 quadratic objective terms
Coefficient statistics:
  Matrix range     [1e+00, 3e+00]
  Objective range  [2e+02, 2e+02]
  QObjective range [2e+00, 4e+00]
  Bounds range     [1e+00, 1e+00]
  RHS range        [1e+00, 4e+00]
Presolve time: 0.00s
Presolved: 2 rows, 3 columns, 5 nonzeros
Presolved model has 6 quadratic objective terms
Ordering time: 0.00s

Barrier statistics:
 Free vars  : 1
 AA' NZ     : 3.000e+00
 Factor NZ  : 6.000e+00
 Factor Ops : 1.400e+01 (less than 1 second per iteration)
 Threads    : 1

                  Objective                Residual
Iter       Primal          Dual         Primal    Dual     Compl     Time
   0  -5.90000000e+05  7.80000000e+03  3.00e+03 2.00e+02  9.64e+05     0s
   1   1.12206212e+05 -2.00691964e+05  8.01e+01 1.10e-08  7.17e+04     0s
   2   1.53101812e+04 -4.16199319e+04  8.01e-05 1.14e-13  8.13e+03     0s
   3   6.98322801e+02 -6.28109684e+03  8.01e-11 2.84e-14  9.97e+02     0s
   4   2.25004034e+00 -3.08253042e+02  5.68e-14 2.84e-14  4.44e+01     0s
   5   2.25016811e-06 -3.06256913e-01  0.00e+00 2.84e-14  4.38e-02     0s
   6   5.45696821e-12 -3.06551608e-04  1.42e-14 0.00e+00  4.38e-05     0s
   7   1.81898940e-12 -3.06859874e-07  0.00e+00 5.68e-14  4.38e-08     0s
   8  -5.45696821e-12 -3.12866177e-10  1.42e-14 5.68e-14  4.41e-11     0s

Barrier solved model in 8 iterations and 0.00 seconds
Optimal objective -5.45696821e-12


Gurobi 8.1.1 (mac64, Python) logging started Sun Sep  8 16:26:57 2019

Academic license - for non-commercial use only

Gurobi 8.1.1 (mac64, Python) logging started Sun Sep  8 16:37:19 2019

Academic license - for non-commercial use only

Gurobi 8.1.1 (mac64, Python) logging started Sun Sep  8 16:42:11 2019

Academic license - for non-commercial use only

Gurobi 8.1.1 (mac64, Python) logging started Sun Sep  8 16:44:46 2019

Academic license - for non-commercial use only

Gurobi 8.1.1 (mac64, Python) logging started Sun Sep  8 16:48:57 2019

Academic license - for non-commercial use only

Gurobi 8.1.1 (mac64, Python) logging started Sun Sep  8 16:52:37 2019

Academic license - for non-commercial use only

Gurobi 8.1.1 (mac64, Python) logging started Sun Sep  8 16:53:43 2019

Academic license - for non-commercial use only

Gurobi 8.1.1 (mac64, Python) logging started Sun Sep  8 16:55:01 2019

Academic license - for non-commercial use only

Gurobi 8.1.1 (mac64, Python) logging started Sun Sep  8 17:03:50 2019

Academic license - for non-commercial use only

Gurobi 8.1.1 (mac64, Python) logging started Sun Sep  8 17:04:28 2019

Academic license - for non-commercial use only

Gurobi 8.1.1 (mac64, Python) logging started Sun Sep  8 17:07:03 2019

Academic license - for non-commercial use only
Optimize a model with 618 rows, 4800 columns and 3397 nonzeros
Model has 9900 quadratic objective terms
Variable types: 1800 continuous, 3000 integer (0 binary)
Coefficient statistics:
  Matrix range     [1e+00, 1e+00]
  Objective range  [6e+00, 6e+02]
  QObjective range [2e+00, 4e+00]
  Bounds range     [0e+00, 0e+00]
  RHS range        [0e+00, 0e+00]
Found heuristic solution: objective 692024.39462
Presolve removed 221 rows and 3409 columns
Presolve time: 0.03s
Presolved: 397 rows, 1391 columns, 1534 nonzeros
Presolved model has 3440 quadratic objective terms
Variable types: 236 continuous, 1155 integer (0 binary)

Root relaxation: objective 0.000000e+00, 303 iterations, 0.01 seconds

    Nodes    |    Current Node    |     Objective Bounds      |     Work
 Expl Unexpl |  Obj  Depth IntInf | Incumbent    BestBd   Gap | It/Node Time

     0     0    0.00000    0    7 692024.395    0.00000   100%     -    0s
H    0     0                       0.3674371    0.00000   100%     -    0s
     0     0    0.00000    0    5    0.36744    0.00000   100%     -    0s
     0     0    0.00000    0    5    0.36744    0.00000   100%     -    0s
H    0     0                       0.2346258    0.00000   100%     -    0s
H    0     0                       0.0000000    0.00000      -     -    0s
     0     0          -    0         0.00000    0.00000      -     -    0s

Explored 1 nodes (309 simplex iterations) in 0.16 seconds
Thread count was 4 (of 4 available processors)

Solution count 4: 1.16415e-10 0.234626 0.367437 692024 

Optimal solution found (tolerance 1.00e-04)
Best objective 1.164153218269e-10, best bound 1.164153218269e-10, gap 0.0000%

Gurobi 8.1.1 (mac64, Python) logging started Mon Sep  9 14:25:22 2019

Academic license - for non-commercial use only
Optimize a model with 1260 rows, 4800 columns and 8334 nonzeros
Model has 9900 quadratic objective terms
Variable types: 1800 continuous, 3000 integer (0 binary)
Coefficient statistics:
  Matrix range     [1e+00, 1e+00]
  Objective range  [6e+00, 6e+02]
  QObjective range [2e+00, 4e+00]
  Bounds range     [0e+00, 0e+00]
  RHS range        [0e+00, 0e+00]
Found heuristic solution: objective 692024.39462
Presolve removed 188 rows and 2120 columns
Presolve time: 0.02s
Presolved: 1072 rows, 2680 columns, 5321 nonzeros
Presolved model has 7421 quadratic objective terms
Variable types: 119 continuous, 2561 integer (0 binary)

Root relaxation: objective 1.405659e+05, 1283 iterations, 0.02 seconds

    Nodes    |    Current Node    |     Objective Bounds      |     Work
 Expl Unexpl |  Obj  Depth IntInf | Incumbent    BestBd   Gap | It/Node Time

     0     0 140565.946    0  150 692024.395 140565.946  79.7%     -    0s
H    0     0                    140811.07636 140565.946  0.17%     -    0s
H    0     0                    140586.99375 140565.946  0.01%     -    0s
H    0     0                    140578.51368 140565.946  0.01%     -    0s

Explored 1 nodes (1283 simplex iterations) in 0.08 seconds
Thread count was 4 (of 4 available processors)

Solution count 4: 140579 140587 140811 692024 

Optimal solution found (tolerance 1.00e-04)
Best objective 1.405785136773e+05, best bound 1.405659459499e+05, gap 0.0089%

Gurobi 8.1.1 (mac64, Python) logging started Mon Sep  9 14:33:50 2019

Academic license - for non-commercial use only
Optimize a model with 1260 rows, 4800 columns and 8334 nonzeros
Model has 9900 quadratic objective terms
Variable types: 1800 continuous, 3000 integer (0 binary)
Coefficient statistics:
  Matrix range     [1e+00, 1e+00]
  Objective range  [6e+00, 6e+02]
  QObjective range [2e+00, 4e+00]
  Bounds range     [0e+00, 0e+00]
  RHS range        [0e+00, 0e+00]
Found heuristic solution: objective 692024.39462
Presolve removed 188 rows and 2120 columns
Presolve time: 0.01s
Presolved: 1072 rows, 2680 columns, 5321 nonzeros
Presolved model has 7421 quadratic objective terms
Variable types: 119 continuous, 2561 integer (0 binary)

Root relaxation: objective 1.405659e+05, 1283 iterations, 0.02 seconds

    Nodes    |    Current Node    |     Objective Bounds      |     Work
 Expl Unexpl |  Obj  Depth IntInf | Incumbent    BestBd   Gap | It/Node Time

     0     0 140565.946    0  150 692024.395 140565.946  79.7%     -    0s
H    0     0                    140811.07636 140565.946  0.17%     -    0s
H    0     0                    140586.99375 140565.946  0.01%     -    0s
H    0     0                    140578.51368 140565.946  0.01%     -    0s

Explored 1 nodes (1283 simplex iterations) in 0.05 seconds
Thread count was 4 (of 4 available processors)

Solution count 4: 140579 140587 140811 692024 

Optimal solution found (tolerance 1.00e-04)
Best objective 1.405785136773e+05, best bound 1.405659459499e+05, gap 0.0089%

Gurobi 8.1.1 (mac64, Python) logging started Mon Sep  9 14:37:47 2019

Academic license - for non-commercial use only
Optimize a model with 1260 rows, 4800 columns and 8334 nonzeros
Model has 9900 quadratic objective terms
Variable types: 1800 continuous, 3000 integer (0 binary)
Coefficient statistics:
  Matrix range     [1e+00, 1e+00]
  Objective range  [6e+00, 6e+02]
  QObjective range [2e+00, 4e+00]
  Bounds range     [0e+00, 0e+00]
  RHS range        [0e+00, 0e+00]
Found heuristic solution: objective 692024.39462
Presolve removed 188 rows and 2120 columns
Presolve time: 0.01s
Presolved: 1072 rows, 2680 columns, 5321 nonzeros
Presolved model has 7421 quadratic objective terms
Variable types: 119 continuous, 2561 integer (0 binary)

Root relaxation: objective 1.405659e+05, 1283 iterations, 0.02 seconds

    Nodes    |    Current Node    |     Objective Bounds      |     Work
 Expl Unexpl |  Obj  Depth IntInf | Incumbent    BestBd   Gap | It/Node Time

     0     0 140565.946    0  150 692024.395 140565.946  79.7%     -    0s
H    0     0                    140811.07636 140565.946  0.17%     -    0s
H    0     0                    140586.99375 140565.946  0.01%     -    0s
H    0     0                    140578.51368 140565.946  0.01%     -    0s

Explored 1 nodes (1283 simplex iterations) in 0.05 seconds
Thread count was 4 (of 4 available processors)

Solution count 4: 140579 140587 140811 692024 

Optimal solution found (tolerance 1.00e-04)
Best objective 1.405785136773e+05, best bound 1.405659459499e+05, gap 0.0089%

Gurobi 8.1.1 (mac64, Python) logging started Mon Sep  9 14:41:34 2019

Academic license - for non-commercial use only
Optimize a model with 1260 rows, 4800 columns and 8334 nonzeros
Model has 9900 quadratic objective terms
Variable types: 1800 continuous, 3000 integer (0 binary)
Coefficient statistics:
  Matrix range     [1e+00, 1e+00]
  Objective range  [6e+00, 6e+02]
  QObjective range [2e+00, 4e+00]
  Bounds range     [0e+00, 0e+00]
  RHS range        [0e+00, 0e+00]
Found heuristic solution: objective 692024.39462
Presolve removed 188 rows and 2120 columns
Presolve time: 0.01s
Presolved: 1072 rows, 2680 columns, 5321 nonzeros
Presolved model has 7421 quadratic objective terms
Variable types: 119 continuous, 2561 integer (0 binary)

Root relaxation: objective 1.405659e+05, 1283 iterations, 0.02 seconds

    Nodes    |    Current Node    |     Objective Bounds      |     Work
 Expl Unexpl |  Obj  Depth IntInf | Incumbent    BestBd   Gap | It/Node Time

     0     0 140565.946    0  150 692024.395 140565.946  79.7%     -    0s
H    0     0                    140811.07636 140565.946  0.17%     -    0s
H    0     0                    140586.99375 140565.946  0.01%     -    0s
H    0     0                    140578.51368 140565.946  0.01%     -    0s

Explored 1 nodes (1283 simplex iterations) in 0.05 seconds
Thread count was 4 (of 4 available processors)

Solution count 4: 140579 140587 140811 692024 

Optimal solution found (tolerance 1.00e-04)
Best objective 1.405785136773e+05, best bound 1.405659459499e+05, gap 0.0089%

Gurobi 8.1.1 (mac64, Python) logging started Mon Sep  9 14:50:28 2019

Academic license - for non-commercial use only
Optimize a model with 1260 rows, 4800 columns and 8334 nonzeros
Model has 9900 quadratic objective terms
Variable types: 1800 continuous, 3000 integer (0 binary)
Coefficient statistics:
  Matrix range     [1e+00, 1e+00]
  Objective range  [6e+00, 6e+02]
  QObjective range [2e+00, 4e+00]
  Bounds range     [0e+00, 0e+00]
  RHS range        [0e+00, 0e+00]
Found heuristic solution: objective 692024.39462
Presolve removed 188 rows and 2120 columns
Presolve time: 0.01s
Presolved: 1072 rows, 2680 columns, 5321 nonzeros
Presolved model has 7421 quadratic objective terms
Variable types: 119 continuous, 2561 integer (0 binary)

Root relaxation: objective 1.405659e+05, 1283 iterations, 0.02 seconds

    Nodes    |    Current Node    |     Objective Bounds      |     Work
 Expl Unexpl |  Obj  Depth IntInf | Incumbent    BestBd   Gap | It/Node Time

     0     0 140565.946    0  150 692024.395 140565.946  79.7%     -    0s
H    0     0                    140811.07636 140565.946  0.17%     -    0s
H    0     0                    140586.99375 140565.946  0.01%     -    0s
H    0     0                    140578.51368 140565.946  0.01%     -    0s

Explored 1 nodes (1283 simplex iterations) in 0.05 seconds
Thread count was 4 (of 4 available processors)

Solution count 4: 140579 140587 140811 692024 

Optimal solution found (tolerance 1.00e-04)
Best objective 1.405785136773e+05, best bound 1.405659459499e+05, gap 0.0089%
